p cnf 274 624
-1 -5 8 0
1 -8 0
5 -8 0
-1 -6 9 0
1 -9 0
6 -9 0
-1 -7 10 0
1 -10 0
7 -10 0
-2 -5 11 0
2 -11 0
5 -11 0
-2 -6 12 0
2 -12 0
6 -12 0
-2 -7 13 0
2 -13 0
7 -13 0
-3 -5 14 0
3 -14 0
5 -14 0
-3 -6 15 0
3 -15 0
6 -15 0
-3 -7 16 0
3 -16 0
7 -16 0
-4 -5 17 0
4 -17 0
5 -17 0
-4 -6 18 0
4 -18 0
6 -18 0
-4 -7 19 0
4 -19 0
7 -19 0
-26 -69 76 0
26 69 76 0
26 -69 -76 0
-26 69 -76 0
-76 -61 54 0
76 61 54 0
76 -61 -54 0
-76 61 -54 0
-26 77 0
-69 77 0
26 69 -77 0
-26 78 0
-61 78 0
26 61 -78 0
-69 79 0
-61 79 0
69 61 -79 0
-77 62 0
-78 62 0
-79 62 0
77 78 79 -62 0
-25 -81 87 0
25 81 87 0
25 -81 -87 0
-25 81 -87 0
-87 -62 55 0
87 62 55 0
87 -62 -55 0
-87 62 -55 0
-25 88 0
-81 88 0
25 81 -88 0
-25 89 0
-62 89 0
25 62 -89 0
-81 90 0
-62 90 0
81 62 -90 0
-88 63 0
-89 63 0
-90 63 0
88 89 90 -63 0
-24 -93 98 0
24 93 98 0
24 -93 -98 0
-24 93 -98 0
-98 -63 56 0
98 63 56 0
98 -63 -56 0
-98 63 -56 0
-24 99 0
-93 99 0
24 93 -99 0
-24 100 0
-63 100 0
24 63 -100 0
-93 101 0
-63 101 0
93 63 -101 0
-99 64 0
-100 64 0
-101 64 0
99 100 101 -64 0
-23 -105 109 0
23 105 109 0
23 -105 -109 0
-23 105 -109 0
-109 -64 57 0
109 64 57 0
109 -64 -57 0
-109 64 -57 0
-23 110 0
-105 110 0
23 105 -110 0
-23 111 0
-64 111 0
23 64 -111 0
-105 112 0
-64 112 0
105 64 -112 0
-110 65 0
-111 65 0
-112 65 0
110 111 112 -65 0
-22 -117 120 0
22 117 120 0
22 -117 -120 0
-22 117 -120 0
-120 -65 58 0
120 65 58 0
120 -65 -58 0
-120 65 -58 0
-22 121 0
-117 121 0
22 117 -121 0
-22 122 0
-65 122 0
22 65 -122 0
-117 123 0
-65 123 0
117 65 -123 0
-121 66 0
-122 66 0
-123 66 0
121 122 123 -66 0
-21 -129 131 0
21 129 131 0
21 -129 -131 0
-21 129 -131 0
-131 -66 59 0
131 66 59 0
131 -66 -59 0
-131 66 -59 0
-21 132 0
-129 132 0
21 129 -132 0
-21 133 0
-66 133 0
21 66 -133 0
-129 134 0
-66 134 0
129 66 -134 0
-132 67 0
-133 67 0
-134 67 0
132 133 134 -67 0
-20 -141 142 0
20 141 142 0
20 -141 -142 0
-20 141 -142 0
-142 -67 60 0
142 67 60 0
142 -67 -60 0
-142 67 -60 0
-20 143 0
-141 143 0
20 141 -143 0
-20 144 0
-67 144 0
20 67 -144 0
-141 145 0
-67 145 0
141 67 -145 0
-143 68 0
-144 68 0
-145 68 0
143 144 145 -68 0
-34 -54 161 0
34 54 161 0
34 -54 -161 0
-34 54 -161 0
-161 -153 146 0
161 153 146 0
161 -153 -146 0
-161 153 -146 0
-34 162 0
-54 162 0
34 54 -162 0
-34 163 0
-153 163 0
34 153 -163 0
-54 164 0
-153 164 0
54 153 -164 0
-162 154 0
-163 154 0
-164 154 0
162 163 164 -154 0
-33 -55 165 0
33 55 165 0
33 -55 -165 0
-33 55 -165 0
-165 -154 147 0
165 154 147 0
165 -154 -147 0
-165 154 -147 0
-33 166 0
-55 166 0
33 55 -166 0
-33 167 0
-154 167 0
33 154 -167 0
-55 168 0
-154 168 0
55 154 -168 0
-166 155 0
-167 155 0
-168 155 0
166 167 168 -155 0
-32 -56 169 0
32 56 169 0
32 -56 -169 0
-32 56 -169 0
-169 -155 148 0
169 155 148 0
169 -155 -148 0
-169 155 -148 0
-32 170 0
-56 170 0
32 56 -170 0
-32 171 0
-155 171 0
32 155 -171 0
-56 172 0
-155 172 0
56 155 -172 0
-170 156 0
-171 156 0
-172 156 0
170 171 172 -156 0
-31 -57 173 0
31 57 173 0
31 -57 -173 0
-31 57 -173 0
-173 -156 149 0
173 156 149 0
173 -156 -149 0
-173 156 -149 0
-31 174 0
-57 174 0
31 57 -174 0
-31 175 0
-156 175 0
31 156 -175 0
-57 176 0
-156 176 0
57 156 -176 0
-174 157 0
-175 157 0
-176 157 0
174 175 176 -157 0
-30 -58 177 0
30 58 177 0
30 -58 -177 0
-30 58 -177 0
-177 -157 150 0
177 157 150 0
177 -157 -150 0
-177 157 -150 0
-30 178 0
-58 178 0
30 58 -178 0
-30 179 0
-157 179 0
30 157 -179 0
-58 180 0
-157 180 0
58 157 -180 0
-178 158 0
-179 158 0
-180 158 0
178 179 180 -158 0
-29 -59 181 0
29 59 181 0
29 -59 -181 0
-29 59 -181 0
-181 -158 151 0
181 158 151 0
181 -158 -151 0
-181 158 -151 0
-29 182 0
-59 182 0
29 59 -182 0
-29 183 0
-158 183 0
29 158 -183 0
-59 184 0
-158 184 0
59 158 -184 0
-182 159 0
-183 159 0
-184 159 0
182 183 184 -159 0
-28 -60 185 0
28 60 185 0
28 -60 -185 0
-28 60 -185 0
-185 -159 152 0
185 159 152 0
185 -159 -152 0
-185 159 -152 0
-28 186 0
-60 186 0
28 60 -186 0
-28 187 0
-159 187 0
28 159 -187 0
-60 188 0
-159 188 0
60 159 -188 0
-186 160 0
-187 160 0
-188 160 0
186 187 188 -160 0
-43 -146 204 0
43 146 204 0
43 -146 -204 0
-43 146 -204 0
-204 -196 189 0
204 196 189 0
204 -196 -189 0
-204 196 -189 0
-43 205 0
-146 205 0
43 146 -205 0
-43 206 0
-196 206 0
43 196 -206 0
-146 207 0
-196 207 0
146 196 -207 0
-205 197 0
-206 197 0
-207 197 0
205 206 207 -197 0
-42 -147 208 0
42 147 208 0
42 -147 -208 0
-42 147 -208 0
-208 -197 190 0
208 197 190 0
208 -197 -190 0
-208 197 -190 0
-42 209 0
-147 209 0
42 147 -209 0
-42 210 0
-197 210 0
42 197 -210 0
-147 211 0
-197 211 0
147 197 -211 0
-209 198 0
-210 198 0
-211 198 0
209 210 211 -198 0
-41 -148 212 0
41 148 212 0
41 -148 -212 0
-41 148 -212 0
-212 -198 191 0
212 198 191 0
212 -198 -191 0
-212 198 -191 0
-41 213 0
-148 213 0
41 148 -213 0
-41 214 0
-198 214 0
41 198 -214 0
-148 215 0
-198 215 0
148 198 -215 0
-213 199 0
-214 199 0
-215 199 0
213 214 215 -199 0
-40 -149 216 0
40 149 216 0
40 -149 -216 0
-40 149 -216 0
-216 -199 192 0
216 199 192 0
216 -199 -192 0
-216 199 -192 0
-40 217 0
-149 217 0
40 149 -217 0
-40 218 0
-199 218 0
40 199 -218 0
-149 219 0
-199 219 0
149 199 -219 0
-217 200 0
-218 200 0
-219 200 0
217 218 219 -200 0
-39 -150 220 0
39 150 220 0
39 -150 -220 0
-39 150 -220 0
-220 -200 193 0
220 200 193 0
220 -200 -193 0
-220 200 -193 0
-39 221 0
-150 221 0
39 150 -221 0
-39 222 0
-200 222 0
39 200 -222 0
-150 223 0
-200 223 0
150 200 -223 0
-221 201 0
-222 201 0
-223 201 0
221 222 223 -201 0
-38 -151 224 0
38 151 224 0
38 -151 -224 0
-38 151 -224 0
-224 -201 194 0
224 201 194 0
224 -201 -194 0
-224 201 -194 0
-38 225 0
-151 225 0
38 151 -225 0
-38 226 0
-201 226 0
38 201 -226 0
-151 227 0
-201 227 0
151 201 -227 0
-225 202 0
-226 202 0
-227 202 0
225 226 227 -202 0
-37 -152 228 0
37 152 228 0
37 -152 -228 0
-37 152 -228 0
-228 -202 195 0
228 202 195 0
228 -202 -195 0
-228 202 -195 0
-37 229 0
-152 229 0
37 152 -229 0
-37 230 0
-202 230 0
37 202 -230 0
-152 231 0
-202 231 0
152 202 -231 0
-229 203 0
-230 203 0
-231 203 0
229 230 231 -203 0
-53 -189 247 0
53 189 247 0
53 -189 -247 0
-53 189 -247 0
-247 -239 232 0
247 239 232 0
247 -239 -232 0
-247 239 -232 0
-53 248 0
-189 248 0
53 189 -248 0
-53 249 0
-239 249 0
53 239 -249 0
-189 250 0
-239 250 0
189 239 -250 0
-248 240 0
-249 240 0
-250 240 0
248 249 250 -240 0
-52 -190 251 0
52 190 251 0
52 -190 -251 0
-52 190 -251 0
-251 -240 233 0
251 240 233 0
251 -240 -233 0
-251 240 -233 0
-52 252 0
-190 252 0
52 190 -252 0
-52 253 0
-240 253 0
52 240 -253 0
-190 254 0
-240 254 0
190 240 -254 0
-252 241 0
-253 241 0
-254 241 0
252 253 254 -241 0
-51 -191 255 0
51 191 255 0
51 -191 -255 0
-51 191 -255 0
-255 -241 234 0
255 241 234 0
255 -241 -234 0
-255 241 -234 0
-51 256 0
-191 256 0
51 191 -256 0
-51 257 0
-241 257 0
51 241 -257 0
-191 258 0
-241 258 0
191 241 -258 0
-256 242 0
-257 242 0
-258 242 0
256 257 258 -242 0
-50 -192 259 0
50 192 259 0
50 -192 -259 0
-50 192 -259 0
-259 -242 235 0
259 242 235 0
259 -242 -235 0
-259 242 -235 0
-50 260 0
-192 260 0
50 192 -260 0
-50 261 0
-242 261 0
50 242 -261 0
-192 262 0
-242 262 0
192 242 -262 0
-260 243 0
-261 243 0
-262 243 0
260 261 262 -243 0
-49 -193 263 0
49 193 263 0
49 -193 -263 0
-49 193 -263 0
-263 -243 236 0
263 243 236 0
263 -243 -236 0
-263 243 -236 0
-49 264 0
-193 264 0
49 193 -264 0
-49 265 0
-243 265 0
49 243 -265 0
-193 266 0
-243 266 0
193 243 -266 0
-264 244 0
-265 244 0
-266 244 0
264 265 266 -244 0
-48 -194 267 0
48 194 267 0
48 -194 -267 0
-48 194 -267 0
-267 -244 237 0
267 244 237 0
267 -244 -237 0
-267 244 -237 0
-48 268 0
-194 268 0
48 194 -268 0
-48 269 0
-244 269 0
48 244 -269 0
-194 270 0
-244 270 0
194 244 -270 0
-268 245 0
-269 245 0
-270 245 0
268 269 270 -245 0
-47 -195 271 0
47 195 271 0
47 -195 -271 0
-47 195 -271 0
-271 -245 238 0
271 245 238 0
271 -245 -238 0
-271 245 -238 0
-47 272 0
-195 272 0
47 195 -272 0
-47 273 0
-245 273 0
47 245 -273 0
-195 274 0
-245 274 0
195 245 -274 0
-272 246 0
-273 246 0
-274 246 0
272 273 274 -246 0
